Route 1: 39 23 22 2
Route 2: 36 11 49 19 48 46 18
Route 3: 37 14 44 38 16 17 5
Route 4: 42 43 15 41 21 4 25
Route 5: 45 8 10 47 7
Route 6: 1 32 30 9 34 35 20 31
Route 7: 3 33 50 6 13
Route 8: 27 26 40 29 24 12 28
Vehicles: 8
Distance: 886.11
